NAME : MyDataset
COMMENT : 5 locations in Randomly generated dataset
TYPE : TSP
DIMENSION : 5
EDGE_WEIGHT_TYPE : EUC_2D
NODE_COORD_SECTION
1 16160.6360 15432.0604
2 15540.1294 19689.9371
3 6864.8609 9582.5225
4 8630.6048 14000.5229
5 24281.3198 6366.6495
EOF